(set-option :print-success false)
(set-logic QF_UF)
(declare-sort x83 0)
(declare-sort x45 0)
(declare-fun x85 () x45)
(declare-fun x43 () x45)
(declare-fun x129 () x45)
(declare-fun x100 () x45)
(declare-fun x1 (x45 x45) x45)
(declare-fun x20 (x45 x45) x45)
(declare-fun x72 () x45)
(assert (and (and (and (and (and (and (not (= x129 x100)) (and (not (= x43 x72)) (and (not (= x85 x72)) (and (not (= x72 x100)) (not (= x72 x129)))))) (not (= x85 x129))) (not (= x129 x43))) (not (= x85 x100))) (not (= x100 x43))) (not (= x43 x85))))
(assert (or (or (or (and (not (= (x20 x100 (x20 x100 x43)) x43)) (and (not (= x85 (x20 x100 (x20 x100 x85)))) (and (not (= (x20 x100 (x20 x100 x100)) x100)) (and (not (= x72 (x20 x100 (x20 x100 x72)))) (not (= (x20 x100 (x20 x100 x129)) x129)))))) (or (and (and (and (not (= x100 (x20 x72 (x20 x72 x100)))) (and (not (= (x20 x72 (x20 x72 x72)) x72)) (not (= (x20 x72 (x20 x72 x129)) x129)))) (not (= x85 (x20 x72 (x20 x72 x85))))) (not (= (x20 x72 (x20 x72 x43)) x43))) (and (not (= (x20 x129 (x20 x129 x43)) x43)) (and (and (and (not (= x72 (x20 x129 (x20 x129 x72)))) (not (= (x20 x129 (x20 x129 x129)) x129))) (not (= (x20 x129 (x20 x129 x100)) x100))) (not (= x85 (x20 x129 (x20 x129 x85)))))))) (and (and (and (not (= (x20 x85 (x20 x85 x100)) x100)) (and (not (= (x20 x85 (x20 x85 x72)) x72)) (not (= (x20 x85 (x20 x85 x129)) x129)))) (not (= x85 (x20 x85 (x20 x85 x85))))) (not (= (x20 x85 (x20 x85 x43)) x43)))) (and (not (= x43 (x20 x43 (x20 x43 x43)))) (and (and (not (= (x20 x43 (x20 x43 x100)) x100)) (and (not (= (x20 x43 (x20 x43 x129)) x129)) (not (= (x20 x43 (x20 x43 x72)) x72)))) (not (= x85 (x20 x43 (x20 x43 x85))))))))
(assert (let ((x109 (x20 x72 x72)) (x121 (x20 x43 x43)) (x99 (x20 x129 x129)) (x7 (x20 x100 x100)) (x108 (x20 x85 x85))) (and (and (or (= x121 x85) (or (or (or (= x85 x109) (= x85 x99)) (= x7 x85)) (= x85 x108))) (and (or (= x100 x121) (or (or (= x7 x100) (or (= x99 x100) (= x109 x100))) (= x108 x100))) (and (or (= x121 x129) (or (= x129 x108) (or (or (= x99 x129) (= x129 x109)) (= x7 x129)))) (or (or (or (or (= x72 x109) (= x99 x72)) (= x72 x7)) (= x72 x108)) (= x72 x121))))) (or (or (= x108 x43) (or (= x43 x7) (or (= x43 x99) (= x109 x43)))) (= x43 x121)))))
(assert (let ((x156 (x20 x129 x43)) (x68 (x20 x43 x129)) (x71 (x20 x43 x85)) (x147 (x20 x43 x43)) (x121 (x20 x72 x85)) (x30 (x20 x72 x43)) (x10 (x20 x100 x100)) (x25 (x20 x100 x72)) (x7 (x20 x72 x129)) (x38 (x20 x129 x100)) (x99 (x20 x72 x72)) (x113 (x20 x129 x85)) (x108 (x20 x72 x100)) (x63 (x20 x85 x72)) (x141 (x20 x85 x85)) (x84 (x20 x85 x43)) (x135 (x20 x85 x100)) (x58 (x20 x43 x100)) (x55 (x20 x100 x43)) (x44 (x20 x129 x72)) (x34 (x20 x43 x72)) (x24 (x20 x85 x129)) (x122 (x20 x129 x129)) (x14 (x20 x100 x85)) (x78 (x20 x100 x129))) (let ((x48 (= x85 x122)) (x157 (= x43 x14)) (x152 (= x85 x10)) (x102 (= x43 x7)) (x39 (= x7 x72)) (x148 (= x34 x43)) (x42 (= x156 x100)) (x96 (= x72 x38)) (x151 (= x25 x100)) (x31 (= x24 x72)) (x143 (= x156 x85)) (x73 (= x129 x147)) (x12 (= x72 x84)) (x124 (= x55 x100)) (x92 (= x63 x129)) (x22 (= x85 x38)) (x81 (= x85 x14)) (x82 (= x85 x58)) (x51 (= x43 x141)) (x127 (= x100 x84)) (x16 (= x129 x141)) (x150 (= x129 x10)) (x26 (= x43 x113)) (x64 (= x85 x55)) (x5 (= x38 x129)) (x149 (= x14 x129)) (x70 (= x129 x71)) (x104 (= x129 x156)) (x2 (= x113 x100)) (x6 (= x122 x129)) (x65 (= x121 x72)) (x49 (= x55 x72)) (x130 (= x100 x122)) (x18 (= x113 x85)) (x28 (= x24 x85)) (x27 (= x30 x85)) (x59 (= x78 x43)) (x52 (= x72 x135)) (x79 (= x108 x72)) (x76 (= x129 x58)) (x140 (= x14 x72)) (x57 (= x84 x129)) (x109 (= x72 x99)) (x33 (= x68 x129)) (x117 (= x84 x43)) (x77 (= x30 x129)) (x120 (= x72 x147)) (x35 (= x72 x25)) (x15 (= x85 x78)) (x132 (= x68 x43)) (x67 (= x38 x43)) (x125 (= x129 x55)) (x29 (= x100 x108)) (x21 (= x10 x43)) (x146 (= x100 x135)) (x3 (= x141 x100)) (x106 (= x85 x141)) (x133 (= x44 x72)) (x36 (= x85 x121)) (x136 (= x14 x100)) (x23 (= x122 x72)) (x91 (= x58 x72)) (x118 (= x38 x100)) (x154 (= x34 x129)) (x13 (= x78 x72)) (x37 (= x7 x100)) (x50 (= x72 x141)) (x116 (= x24 x100)) (x19 (= x99 x100)) (x131 (= x156 x43)) (x134 (= x108 x43)) (x46 (= x85 x147)) (x62 (= x85 x99)) (x4 (= x121 x100)) (x97 (= x72 x34)) (x40 (= x63 x85)) (x94 (= x100 x68)) (x56 (= x71 x72)) (x138 (= x129 x7)) (x54 (= x72 x113)) (x69 (= x24 x129)) (x153 (= x85 x135)) (x142 (= x100 x44)) (x95 (= x100 x63)) (x98 (= x68 x85)) (x107 (= x135 x43)) (x112 (= x43 x99)) (x103 (= x72 x68)) (x11 (= x43 x63)) (x74 (= x71 x100)) (x105 (= x43 x55)) (x123 (= x85 x34)) (x41 (= x129 x78)) (x87 (= x100 x30)) (x114 (= x25 x129)) (x144 (= x10 x72)) (x9 (= x30 x43)) (x32 (= x108 x129)) (x89 (= x25 x85)) (x101 (= x129 x99)) (x119 (= x156 x72)) (x126 (= x108 x85)) (x47 (= x43 x44)) (x75 (= x72 x30)) (x159 (= x10 x100)) (x66 (= x43 x24)) (x137 (= x129 x135)) (x61 (= x121 x129)) (x8 (= x71 x85)) (x17 (= x43 x147)) (x60 (= x43 x71)) (x93 (= x147 x100)) (x139 (= x85 x44)) (x80 (= x100 x34)) (x86 (= x100 x58)) (x53 (= x85 x84)) (x111 (= x129 x44)) (x90 (= x78 x100)) (x128 (= x122 x43)) (x115 (= x43 x58)) (x158 (= x25 x43)) (x155 (= x72 x63)) (x88 (= x121 x43)) (x145 (= x113 x129)) (x110 (= x7 x85))) (and (and (and (and (and (and (and (or (or (or x89 (or x139 x62)) x40) x123) (or (or (or x126 (or x110 x62)) x36) x27)) (and (and (or (or x4 (or (or x37 x19) x29)) x87) (or (or x95 (or (or x19 x142) x151)) x80)) (and (and (or x77 (or x61 (or (or x101 x138) x32))) (or (or (or (or x101 x111) x114) x92) x154)) (and (or (or x155 (or x35 (or x133 x109))) x97) (or (or x65 (or (or x39 x109) x79)) x75))))) (and (or (or (or x134 (or x112 x102)) x88) x9) (or (or x11 (or (or x47 x112) x158)) x148))) (and (and (or (or x26 (or x67 (or x128 x47))) x131) (or (or (or (or x102 x128) x59) x66) x132)) (and (and (and (or (or x116 (or (or x130 x37) x90)) x94) (or (or (or (or x130 x142) x118) x2) x42)) (and (and (or (or (or x13 (or x39 x23)) x31) x103) (or (or (or x96 (or x133 x23)) x54) x119)) (and (or x104 (or x145 (or x5 (or x6 x111)))) (or x33 (or (or x41 (or x6 x138)) x69))))) (and (or x143 (or x18 (or (or x139 x48) x22))) (or x98 (or (or (or x48 x110) x15) x28)))))) (and (and (or (or (or x21 (or x67 x134)) x107) x115) (or (or x157 (or (or x59 x158) x21)) x105)) (and (and (and (and (or (or x137 (or (or x32 x5) x150)) x76) (or (or (or x150 (or x114 x41)) x149) x125)) (and (or x91 (or (or (or x79 x96) x144) x52)) (or (or (or (or x13 x35) x144) x140) x49))) (and (or x124 (or (or (or x90 x151) x159) x136)) (or (or x146 (or (or x29 x118) x159)) x86))) (and (or (or (or (or x126 x22) x152) x153) x82) (or (or (or x152 (or x89 x15)) x81) x64))))) (and (and (or (or (or x107 (or x66 x11)) x51) x117) (or x60 (or x51 (or (or x88 x26) x157)))) (and (and (and (or x127 (or x3 (or x146 (or x116 x95)))) (or (or (or x136 (or x4 x2)) x3) x74)) (and (and (or x57 (or x16 (or (or x92 x69) x137))) (or (or x16 (or x149 (or x145 x61))) x70)) (and (or x12 (or x50 (or x52 (or x155 x31)))) (or x56 (or (or x140 (or x65 x54)) x50))))) (and (or (or (or x153 (or x28 x40)) x106) x53) (or x8 (or x106 (or x81 (or x36 x18)))))))) (and (and (or x17 (or (or (or x131 x9) x105) x117)) (or x17 (or x60 (or (or x148 x132) x115)))) (and (and (or (or (or (or x123 x98) x82) x8) x46) (or x46 (or x53 (or (or x27 x143) x64)))) (and (and (or x93 (or (or (or x42 x87) x124) x127)) (or (or (or (or x94 x80) x86) x74) x93)) (and (and (or x120 (or (or (or x75 x119) x49) x12)) (or x120 (or (or x91 (or x103 x97)) x56))) (and (or (or (or (or x104 x77) x125) x57) x73) (or (or x70 (or x76 (or x154 x33))) x73))))))))))
(assert (or (and (and (and (and (= x72 (x20 (x20 x72 x43) x43)) (= (x20 (x20 x129 x43) x43) x129)) (= x100 (x20 (x20 x100 x43) x43))) (= (x20 (x20 x85 x43) x43) x85)) (= x43 (x20 (x20 x43 x43) x43))) (or (and (= (x20 (x20 x43 x85) x85) x43) (and (= (x20 (x20 x85 x85) x85) x85) (and (= (x20 (x20 x100 x85) x85) x100) (and (= x72 (x20 (x20 x72 x85) x85)) (= x129 (x20 (x20 x129 x85) x85)))))) (or (and (and (and (and (= x129 (x20 (x20 x129 x100) x100)) (= (x20 (x20 x72 x100) x100) x72)) (= (x20 (x20 x100 x100) x100) x100)) (= x85 (x20 (x20 x85 x100) x100))) (= x43 (x20 (x20 x43 x100) x100))) (or (and (= (x20 (x20 x43 x72) x72) x43) (and (and (and (= (x20 (x20 x72 x72) x72) x72) (= (x20 (x20 x129 x72) x72) x129)) (= x100 (x20 (x20 x100 x72) x72))) (= x85 (x20 (x20 x85 x72) x72)))) (and (= (x20 (x20 x43 x129) x129) x43) (and (and (and (= x72 (x20 (x20 x72 x129) x129)) (= x129 (x20 (x20 x129 x129) x129))) (= (x20 (x20 x100 x129) x129) x100)) (= (x20 (x20 x85 x129) x129) x85))))))))
(assert (and (= x85 (x20 x129 x100)) (and (= x100 (x20 x72 x43)) (and (= (x20 x72 x72) x129) (= (x20 x43 x43) x72)))))
(assert (let ((x47 (x20 x72 x43)) (x135 (x20 x100 x100)) (x48 (x20 x85 x72)) (x118 (x20 x43 x100)) (x102 (x20 x43 x72)) (x139 (x20 x100 x72)) (x142 (x20 x72 x129)) (x158 (x20 x85 x85)) (x13 (x20 x129 x129)) (x110 (x20 x72 x85)) (x96 (x20 x129 x100)) (x151 (x20 x100 x85)) (x134 (x20 x85 x43)) (x29 (x20 x100 x43)) (x90 (x20 x85 x100)) (x41 (x20 x85 x129)) (x92 (x20 x43 x43)) (x37 (x20 x129 x72)) (x14 (x20 x43 x129)) (x114 (x20 x129 x85)) (x10 (x20 x129 x43)) (x24 (x20 x72 x72)) (x144 (x20 x100 x129)) (x67 (x20 x43 x85)) (x130 (x20 x72 x100))) (let ((x22 (= x129 x90)) (x94 (= x92 x85)) (x35 (= x142 x129)) (x105 (= x43 x67)) (x122 (= x72 x14)) (x16 (= x100 x144)) (x12 (= x85 x41)) (x121 (= x72 x139)) (x53 (= x43 x151)) (x127 (= x43 x130)) (x17 (= x92 x43)) (x4 (= x100 x41)) (x157 (= x85 x142)) (x68 (= x129 x24)) (x27 (= x41 x43)) (x137 (= x24 x100)) (x46 (= x43 x158)) (x99 (= x72 x37)) (x106 (= x29 x100)) (x8 (= x110 x43)) (x52 (= x10 x129)) (x21 (= x129 x102)) (x101 (= x144 x72)) (x124 (= x139 x43)) (x76 (= x85 x158)) (x50 (= x129 x134)) (x133 (= x151 x72)) (x112 (= x90 x72)) (x86 (= x24 x43)) (x25 (= x72 x135)) (x115 (= x14 x43)) (x79 (= x129 x13)) (x63 (= x48 x72)) (x7 (= x72 x142)) (x89 (= x129 x110)) (x98 (= x43 x135)) (x28 (= x100 x102)) (x51 (= x13 x85)) (x152 (= x129 x151)) (x126 (= x129 x114)) (x9 (= x118 x43)) (x65 (= x118 x129)) (x103 (= x130 x85)) (x39 (= x72 x158)) (x54 (= x129 x29)) (x74 (= x43 x37)) (x59 (= x129 x158)) (x40 (= x158 x100)) (x149 (= x130 x100)) (x156 (= x72 x29)) (x15 (= x41 x129)) (x42 (= x43 x13)) (x32 (= x129 x130)) (x23 (= x72 x102)) (x97 (= x85 x139)) (x120 (= x85 x114)) (x78 (= x92 x72)) (x33 (= x151 x85)) (x81 (= x118 x100)) (x119 (= x85 x48)) (x91 (= x144 x85)) (x117 (= x43 x134)) (x3 (= x100 x151)) (x111 (= x47 x72)) (x143 (= x43 x114)) (x80 (= x134 x85)) (x93 (= x43 x144)) (x146 (= x110 x100)) (x55 (= x129 x139)) (x131 (= x43 x29)) (x153 (= x100 x47)) (x38 (= x10 x72)) (x57 (= x29 x85)) (x95 (= x100 x135)) (x147 (= x47 x85)) (x2 (= x100 x114)) (x5 (= x129 x144)) (x44 (= x72 x96)) (x73 (= x67 x85)) (x128 (= x37 x129)) (x69 (= x129 x92)) (x31 (= x129 x14)) (x58 (= x135 x129)) (x155 (= x129 x47)) (x18 (= x10 x100)) (x88 (= x24 x85)) (x140 (= x67 x129)) (x136 (= x100 x90)) (x132 (= x47 x43)) (x82 (= x43 x48)) (x61 (= x13 x100)) (x138 (= x67 x72)) (x107 (= x100 x92)) (x109 (= x24 x72)) (x34 (= x72 x110)) (x56 (= x96 x85)) (x19 (= x41 x72)) (x87 (= x142 x43)) (x150 (= x129 x96)) (x66 (= x100 x134)) (x70 (= x85 x102)) (x159 (= x48 x129)) (x60 (= x10 x43)) (x108 (= x13 x72)) (x154 (= x85 x90)) (x11 (= x100 x67)) (x104 (= x10 x85)) (x141 (= x37 x100)) (x113 (= x72 x118)) (x77 (= x85 x14)) (x84 (= x100 x142)) (x148 (= x43 x102)) (x6 (= x72 x134)) (x116 (= x48 x100)) (x125 (= x118 x85)) (x64 (= x43 x90)) (x30 (= x130 x72)) (x36 (= x100 x14)) (x26 (= x37 x85)) (x49 (= x85 x110)) (x62 (= x114 x72)) (x75 (= x135 x85)) (x71 (= x96 x100)) (x123 (= x96 x43)) (x145 (= x139 x100))) (or (and (and (and (or x105 (not x117)) (and (or x46 (not x46)) (and (and (or (not x82) x8) (or x143 (not x27))) (or x53 (not x64))))) (and (and (and (or (not x132) x148) (and (or (not x8) x82) (and (or (not x127) x124) (and (or x74 (not x87)) (or x86 (not x86)))))) (and (or x115 (not x60)) (and (and (or x93 (not x123)) (and (or (not x42) x42) (or x87 (not x74)))) (or (not x143) x27)))) (and (and (and (or x98 (not x98)) (and (or (not x124) x127) (or x123 (not x93)))) (or (not x53) x64)) (or (not x131) x9)))) (and (or x17 (not x17)) (and (or x117 (not x105)) (and (or x131 (not x9)) (and (or x60 (not x115)) (or x132 (not x148))))))) (or (or (or (and (and (and (or x50 (not x140)) (and (or (not x65) x54) (and (or (not x21) x155) (or (not x31) x52)))) (or (not x69) x69)) (and (and (or x140 (not x50)) (and (and (and (or x89 (not x159)) (or x126 (not x15))) (or (not x22) x152)) (or x59 (not x59)))) (and (and (and (or (not x155) x21) (and (and (or (not x32) x55) (and (or x68 (not x68)) (or (not x35) x128))) (or (not x89) x159))) (and (and (or x15 (not x126)) (and (and (or x35 (not x128)) (or (not x79) x79)) (or (not x150) x5))) (or x31 (not x52)))) (and (or (not x54) x65) (and (and (or (not x58) x58) (and (or (not x5) x150) (or (not x55) x32))) (or x22 (not x152))))))) (and (and (and (or (not x138) x6) (and (or x156 (not x113)) (and (or x111 (not x23)) (or (not x122) x38)))) (or (not x78) x78)) (and (and (and (and (and (and (or (not x121) x30) (or x44 (not x101))) (or x25 (not x25))) (or x112 (not x133))) (or (not x156) x113)) (and (and (and (and (and (or (not x7) x99) (or (not x109) x109)) (or x121 (not x30))) (or (not x34) x63)) (or (not x111) x23)) (and (and (or (not x62) x19) (and (and (or x108 (not x108)) (or x7 (not x99))) (or x101 (not x44)))) (or x122 (not x38))))) (and (and (or x39 (not x39)) (and (and (or (not x63) x34) (or (not x19) x62)) (or (not x112) x133))) (or (not x6) x138))))) (and (and (and (or (not x11) x66) (and (or (not x81) x106) (and (or (not x28) x153) (or x18 (not x36))))) (or (not x107) x107)) (and (and (and (and (or x28 (not x153)) (and (or x116 (not x146)) (and (and (or (not x84) x141) (or x137 (not x137))) (or x145 (not x149))))) (and (and (and (and (or (not x61) x61) (or x84 (not x141))) (or x16 (not x71))) (or (not x2) x4)) (or (not x18) x36))) (and (or x81 (not x106)) (and (and (or (not x95) x95) (and (or x71 (not x16)) (or (not x145) x149))) (or (not x3) x136)))) (and (and (or x40 (not x40)) (and (or (not x136) x3) (and (or (not x4) x2) (or x146 (not x116))))) (or (not x66) x11))))) (and (and (and (or x73 (not x80)) (and (or (not x76) x76) (and (or (not x154) x33) (and (or (not x12) x120) (or (not x119) x49))))) (and (and (or (not x57) x125) (and (or x154 (not x33)) (and (and (or x103 (not x97)) (or x56 (not x91))) (or (not x75) x75)))) (and (and (and (or x12 (not x120)) (and (or x91 (not x56)) (and (or x51 (not x51)) (or (not x26) x157)))) (or x77 (not x104))) (and (and (and (or x97 (not x103)) (and (or (not x157) x26) (or (not x88) x88))) (or (not x49) x119)) (or x70 (not x147)))))) (and (and (or x80 (not x73)) (and (or (not x125) x57) (and (or x104 (not x77)) (or (not x70) x147)))) (or x94 (not x94)))))))))
(assert (let ((x7 (= x129 (x20 x129 x129))) (x109 (= (x20 x72 x72) x72)) (x63 (= (x20 x43 x43) x43)) (x44 (= x100 (x20 x100 x100))) (x25 (= x85 (x20 x85 x85)))) (let ((x30 (not x25)) (x121 (not x44)) (x108 (not x7)) (x101 (not x63)) (x99 (not x109))) (or (or (or (or (or (and (= x43 (x20 x43 x129)) x108) (and x99 (= (x20 x43 x72) x43))) (and x121 (= x43 (x20 x43 x100)))) (and (= x43 (x20 x43 x85)) x30)) (and x63 x101)) (or (or (or (or (and x101 (= x72 (x20 x72 x43))) (or (or (or (and x108 (= (x20 x72 x129) x72)) (and x109 x99)) (and (= (x20 x72 x100) x72) x121)) (and x30 (= (x20 x72 x85) x72)))) (or (or (and x30 (= x129 (x20 x129 x85))) (or (or (and (= (x20 x129 x72) x129) x99) (and x7 x108)) (and x121 (= (x20 x129 x100) x129)))) (and x101 (= x129 (x20 x129 x43))))) (or (and x101 (= (x20 x100 x43) x100)) (or (and x30 (= x100 (x20 x100 x85))) (or (or (and x99 (= x100 (x20 x100 x72))) (and (= x100 (x20 x100 x129)) x108)) (and x121 x44))))) (or (or (or (or (and x99 (= x85 (x20 x85 x72))) (and (= (x20 x85 x129) x85) x108)) (and x121 (= x85 (x20 x85 x100)))) (and x25 x30)) (and x101 (= (x20 x85 x43) x85))))))))
(assert (let ((x19 (x20 x100 x129)) (x111 (x20 x85 x100)) (x44 (x20 x129 x100)) (x23 (x20 x85 x129)) (x38 (x20 x85 x43)) (x121 (x20 x72 x43)) (x63 (x20 x129 x43)) (x62 (x20 x100 x100)) (x113 (x20 x43 x72)) (x34 (x20 x100 x72)) (x108 (x20 x72 x85)) (x112 (x20 x100 x85)) (x122 (x20 x85 x85)) (x156 (x20 x43 x129)) (x39 (x20 x85 x72)) (x6 (x20 x43 x85)) (x133 (x20 x100 x43)) (x109 (x20 x72 x72)) (x30 (x20 x129 x72)) (x25 (x20 x129 x85)) (x138 (x20 x43 x100)) (x7 (x20 x72 x100)) (x101 (x20 x129 x129)) (x99 (x20 x72 x129)) (x78 (x20 x43 x43))) (and (and (and (and (and (and (and (and (or (or (or (= x109 x100) (or (= x109 x129) (= x109 x72))) (= x85 x109)) (= x109 x43)) (or (= x99 x43) (or (= x85 x99) (or (= x99 x100) (or (= x99 x72) (= x129 x99)))))) (or (or (or (= x7 x100) (or (= x7 x129) (= x72 x7))) (= x85 x7)) (= x43 x7))) (or (or (or (= x100 x108) (or (= x108 x72) (= x108 x129))) (= x108 x85)) (= x108 x43))) (or (= x121 x43) (or (or (= x100 x121) (or (= x129 x121) (= x72 x121))) (= x121 x85)))) (and (or (= x63 x43) (or (= x85 x63) (or (or (= x63 x129) (= x63 x72)) (= x100 x63)))) (and (and (or (or (= x85 x44) (or (= x100 x44) (or (= x44 x129) (= x72 x44)))) (= x43 x44)) (and (or (= x43 x101) (or (= x85 x101) (or (= x100 x101) (or (= x101 x72) (= x101 x129))))) (or (= x30 x43) (or (= x30 x85) (or (= x30 x100) (or (= x30 x72) (= x129 x30))))))) (or (or (= x85 x25) (or (= x100 x25) (or (= x129 x25) (= x72 x25)))) (= x25 x43))))) (and (or (or (or (= x100 x133) (or (= x72 x133) (= x133 x129))) (= x133 x85)) (= x43 x133)) (and (or (= x112 x43) (or (= x85 x112) (or (= x112 x100) (or (= x129 x112) (= x72 x112))))) (and (or (or (= x85 x62) (or (or (= x62 x129) (= x72 x62)) (= x62 x100))) (= x62 x43)) (and (or (or (or (or (= x19 x129) (= x19 x72)) (= x100 x19)) (= x19 x85)) (= x43 x19)) (or (= x43 x34) (or (or (= x34 x100) (or (= x129 x34) (= x34 x72))) (= x85 x34)))))))) (and (and (and (and (or (or (= x85 x23) (or (= x100 x23) (or (= x23 x72) (= x129 x23)))) (= x23 x43)) (or (or (= x85 x39) (or (= x39 x100) (or (= x39 x72) (= x39 x129)))) (= x43 x39))) (or (= x111 x43) (or (= x111 x85) (or (or (= x111 x129) (= x72 x111)) (= x100 x111))))) (or (= x122 x43) (or (or (or (= x122 x129) (= x122 x72)) (= x100 x122)) (= x122 x85)))) (or (= x38 x43) (or (or (= x100 x38) (or (= x38 x72) (= x129 x38))) (= x85 x38))))) (and (and (and (or (or (or (= x100 x138) (or (= x129 x138) (= x72 x138))) (= x85 x138)) (= x43 x138)) (and (or (or (= x85 x113) (or (= x113 x100) (or (= x113 x72) (= x113 x129)))) (= x43 x113)) (or (or (= x85 x156) (or (or (= x156 x72) (= x129 x156)) (= x100 x156))) (= x43 x156)))) (or (= x6 x43) (or (= x85 x6) (or (= x6 x100) (or (= x129 x6) (= x72 x6)))))) (or (= x78 x43) (or (or (or (= x129 x78) (= x78 x72)) (= x78 x100)) (= x85 x78)))))))
(assert (or (and (not (= (x20 (x20 x43 x43) x43) x43)) (and (not (= (x20 (x20 x85 x43) x43) x85)) (and (and (not (= (x20 (x20 x129 x43) x43) x129)) (not (= x72 (x20 (x20 x72 x43) x43)))) (not (= x100 (x20 (x20 x100 x43) x43)))))) (or (and (not (= (x20 (x20 x43 x85) x85) x43)) (and (and (not (= (x20 (x20 x100 x85) x85) x100)) (and (not (= (x20 (x20 x129 x85) x85) x129)) (not (= x72 (x20 (x20 x72 x85) x85))))) (not (= (x20 (x20 x85 x85) x85) x85)))) (or (and (and (and (and (not (= (x20 (x20 x72 x100) x100) x72)) (not (= x129 (x20 (x20 x129 x100) x100)))) (not (= x100 (x20 (x20 x100 x100) x100)))) (not (= (x20 (x20 x85 x100) x100) x85))) (not (= x43 (x20 (x20 x43 x100) x100)))) (or (and (and (and (and (not (= x72 (x20 (x20 x72 x72) x72))) (not (= x129 (x20 (x20 x129 x72) x72)))) (not (= x100 (x20 (x20 x100 x72) x72)))) (not (= (x20 (x20 x85 x72) x72) x85))) (not (= (x20 (x20 x43 x72) x72) x43))) (and (and (and (not (= x100 (x20 (x20 x100 x129) x129))) (and (not (= x72 (x20 (x20 x72 x129) x129))) (not (= (x20 (x20 x129 x129) x129) x129)))) (not (= (x20 (x20 x85 x129) x129) x85))) (not (= (x20 (x20 x43 x129) x129) x43))))))))
(assert (let ((x133 (x20 x100 x43)) (x62 (x20 x100 x100)) (x30 (x20 x129 x72)) (x101 (x20 x129 x129)) (x138 (x20 x43 x100)) (x39 (x20 x85 x72)) (x6 (x20 x43 x85)) (x121 (x20 x72 x43)) (x63 (x20 x129 x43)) (x44 (x20 x129 x100)) (x23 (x20 x85 x129)) (x19 (x20 x100 x129)) (x7 (x20 x72 x100)) (x99 (x20 x72 x129)) (x109 (x20 x72 x72)) (x112 (x20 x100 x85)) (x113 (x20 x43 x72)) (x34 (x20 x100 x72)) (x38 (x20 x85 x43)) (x111 (x20 x85 x100)) (x25 (x20 x129 x85)) (x156 (x20 x43 x129)) (x122 (x20 x85 x85)) (x78 (x20 x43 x43)) (x108 (x20 x72 x85))) (and (or (and (and (not (= x85 (x20 x6 x43))) (and (not (= (x20 x138 x43) x100)) (and (not (= x72 (x20 x113 x43))) (not (= (x20 x156 x43) x129))))) (not (= x43 (x20 x78 x43)))) (or (and (and (not (= (x20 x122 x85) x85)) (and (not (= x100 (x20 x111 x85))) (and (not (= (x20 x23 x85) x129)) (not (= (x20 x39 x85) x72))))) (not (= (x20 x38 x85) x43))) (or (or (and (not (= (x20 x63 x129) x43)) (and (and (not (= x100 (x20 x44 x129))) (and (not (= (x20 x30 x129) x72)) (not (= (x20 x101 x129) x129)))) (not (= x85 (x20 x25 x129))))) (and (not (= (x20 x121 x72) x43)) (and (not (= x85 (x20 x108 x72))) (and (and (not (= x129 (x20 x99 x72))) (not (= (x20 x109 x72) x72))) (not (= x100 (x20 x7 x72))))))) (and (not (= (x20 x133 x100) x43)) (and (not (= x85 (x20 x112 x100))) (and (not (= (x20 x62 x100) x100)) (and (not (= x72 (x20 x34 x100))) (not (= (x20 x19 x100) x129))))))))) (or (and (not (= x43 (x20 x43 x78))) (and (and (and (not (= x43 (x20 x72 x113))) (not (= x43 (x20 x129 x156)))) (not (= (x20 x100 x138) x43))) (not (= x43 (x20 x85 x6))))) (or (or (and (and (not (= x100 (x20 x85 x112))) (and (and (not (= (x20 x129 x19) x100)) (not (= (x20 x72 x34) x100))) (not (= (x20 x100 x62) x100)))) (not (= x100 (x20 x43 x133)))) (or (and (and (not (= (x20 x85 x25) x129)) (and (not (= (x20 x100 x44) x129)) (and (not (= (x20 x129 x101) x129)) (not (= (x20 x72 x30) x129))))) (not (= (x20 x43 x63) x129))) (and (and (not (= (x20 x85 x108) x72)) (and (and (not (= x72 (x20 x129 x99))) (not (= x72 (x20 x72 x109)))) (not (= (x20 x100 x7) x72)))) (not (= (x20 x43 x121) x72))))) (and (not (= x85 (x20 x43 x38))) (and (not (= x85 (x20 x85 x122))) (and (not (= (x20 x100 x111) x85)) (and (not (= x85 (x20 x72 x39))) (not (= x85 (x20 x129 x23))))))))))))
(assert (not (and (and (and (and (= (x20 x43 x129) x43) (and (= (x20 x43 x72) x85) (and (= (x20 x85 x43) x129) (and (and (and (= (x20 x85 x129) x72) (and (and (and (and (and (and (= (x20 x100 x72) x100) (and (= x43 (x20 x129 x43)) (and (= (x20 x129 x85) x129) (and (and (and (and (and (= (x20 x72 x85) x43) (and (and (= x129 (x20 x72 x72)) (= x85 (x20 x72 x129))) (= x72 (x20 x72 x100)))) (= (x20 x72 x43) x100)) (= (x20 x129 x72) x72)) (= (x20 x129 x129) x100)) (= (x20 x129 x100) x85))))) (= x129 (x20 x100 x129))) (= (x20 x100 x100) x43)) (= x72 (x20 x100 x85))) (= x85 (x20 x100 x43))) (= x43 (x20 x85 x72)))) (= (x20 x85 x100) x100)) (= (x20 x85 x85) x85))))) (= x129 (x20 x43 x100))) (= x100 (x20 x43 x85))) (= x72 (x20 x43 x43)))))
(assert (not (and (and (and (and (and (and (and (and (and (and (and (and (= (x20 x100 x85) x100) (and (and (and (and (and (= (x20 x129 x85) x72) (and (= x85 (x20 x129 x100)) (and (= (x20 x129 x129) x100) (and (and (= x100 (x20 x72 x43)) (and (= (x20 x72 x85) x43) (and (and (= x129 (x20 x72 x72)) (= (x20 x72 x129) x85)) (= (x20 x72 x100) x72)))) (= (x20 x129 x72) x43))))) (= x129 (x20 x129 x43))) (= x72 (x20 x100 x72))) (= (x20 x100 x129) x129)) (= (x20 x100 x100) x43))) (= (x20 x100 x43) x85)) (= x100 (x20 x85 x72))) (= x72 (x20 x85 x129))) (= (x20 x85 x100) x129)) (= (x20 x85 x85) x85)) (= (x20 x85 x43) x43)) (= x85 (x20 x43 x72))) (= x43 (x20 x43 x129))) (= (x20 x43 x100) x100)) (= x129 (x20 x43 x85))) (= x72 (x20 x43 x43)))))
(assert (and (or (or (or (or (not (= x72 (x20 x43 (x20 x43 x72)))) (not (= (x20 x43 (x20 x43 x129)) x129))) (not (= x100 (x20 x43 (x20 x43 x100))))) (not (= (x20 x43 (x20 x43 x85)) x85))) (not (= (x20 x43 (x20 x43 x43)) x43))) (and (and (and (or (not (= (x20 x72 (x20 x72 x43)) x43)) (or (not (= x85 (x20 x72 (x20 x72 x85)))) (or (or (not (= (x20 x72 (x20 x72 x129)) x129)) (not (= x72 (x20 x72 (x20 x72 x72))))) (not (= x100 (x20 x72 (x20 x72 x100))))))) (or (not (= (x20 x129 (x20 x129 x43)) x43)) (or (not (= (x20 x129 (x20 x129 x85)) x85)) (or (not (= x100 (x20 x129 (x20 x129 x100)))) (or (not (= (x20 x129 (x20 x129 x72)) x72)) (not (= x129 (x20 x129 (x20 x129 x129))))))))) (or (or (or (or (not (= x129 (x20 x100 (x20 x100 x129)))) (not (= (x20 x100 (x20 x100 x72)) x72))) (not (= x100 (x20 x100 (x20 x100 x100))))) (not (= (x20 x100 (x20 x100 x85)) x85))) (not (= x43 (x20 x100 (x20 x100 x43)))))) (or (or (or (or (not (= x129 (x20 x85 (x20 x85 x129)))) (not (= x72 (x20 x85 (x20 x85 x72))))) (not (= (x20 x85 (x20 x85 x100)) x100))) (not (= x85 (x20 x85 (x20 x85 x85))))) (not (= (x20 x85 (x20 x85 x43)) x43))))))
(assert (let ((x121 (x20 x43 x72)) (x30 (x20 x72 x129)) (x39 (x20 x72 x85)) (x101 (x20 x129 x129)) (x6 (x20 x85 x43)) (x156 (x20 x129 x43)) (x108 (x20 x85 x72)) (x113 (x20 x72 x43)) (x19 (x20 x129 x100)) (x122 (x20 x85 x85)) (x44 (x20 x100 x129)) (x63 (x20 x43 x129)) (x38 (x20 x43 x85)) (x112 (x20 x85 x100)) (x111 (x20 x100 x85)) (x99 (x20 x129 x72)) (x109 (x20 x72 x72)) (x138 (x20 x100 x43)) (x7 (x20 x100 x72)) (x133 (x20 x43 x100)) (x34 (x20 x72 x100)) (x23 (x20 x129 x85)) (x25 (x20 x85 x129)) (x62 (x20 x100 x100)) (x78 (x20 x43 x43))) (and (and (and (not (= x78 x38)) (and (and (not (= x133 x38)) (and (not (= x78 x63)) (and (not (= x63 x38)) (and (and (and (and (not (= x63 x121)) (not (= x133 x121))) (not (= x121 x38))) (not (= x121 x78))) (not (= x63 x133)))))) (not (= x78 x133)))) (and (and (not (= x122 x6)) (and (not (= x6 x112)) (and (and (not (= x25 x6)) (and (not (= x25 x122)) (and (and (not (= x6 x108)) (and (not (= x108 x122)) (and (not (= x108 x112)) (not (= x25 x108))))) (not (= x25 x112))))) (not (= x112 x122))))) (and (and (not (= x111 x138)) (and (and (not (= x111 x62)) (and (and (and (not (= x62 x44)) (and (not (= x138 x7)) (and (and (not (= x44 x7)) (not (= x62 x7))) (not (= x7 x111))))) (not (= x111 x44))) (not (= x44 x138)))) (not (= x62 x138)))) (and (and (and (and (not (= x39 x34)) (and (not (= x113 x30)) (and (and (and (and (not (= x109 x39)) (and (not (= x109 x34)) (not (= x30 x109)))) (not (= x109 x113))) (not (= x34 x30))) (not (= x39 x30))))) (not (= x34 x113))) (not (= x113 x39))) (and (and (not (= x156 x19)) (and (and (and (and (not (= x101 x19)) (and (and (and (not (= x99 x19)) (not (= x101 x99))) (not (= x23 x99))) (not (= x156 x99)))) (not (= x23 x101))) (not (= x101 x156))) (not (= x23 x19)))) (not (= x23 x156))))))) (and (and (and (and (and (not (= x122 x111)) (and (and (not (= x23 x122)) (and (and (and (not (= x39 x122)) (and (not (= x111 x39)) (not (= x39 x23)))) (not (= x38 x39))) (not (= x23 x111)))) (not (= x38 x23)))) (not (= x111 x38))) (not (= x38 x122))) (and (and (and (not (= x62 x133)) (and (and (not (= x19 x133)) (and (not (= x19 x112)) (and (not (= x19 x62)) (and (and (and (not (= x34 x62)) (not (= x34 x19))) (not (= x112 x34))) (not (= x34 x133)))))) (not (= x62 x112)))) (not (= x133 x112))) (and (and (and (and (and (and (and (and (not (= x63 x30)) (and (not (= x25 x30)) (and (not (= x30 x101)) (not (= x44 x30))))) (not (= x44 x101))) (not (= x101 x25))) (not (= x63 x101))) (not (= x25 x44))) (not (= x44 x63))) (not (= x63 x25))) (and (and (not (= x7 x121)) (and (and (not (= x121 x99)) (and (not (= x99 x108)) (and (not (= x99 x7)) (and (not (= x121 x109)) (and (not (= x109 x108)) (and (not (= x109 x99)) (not (= x7 x109)))))))) (not (= x108 x7)))) (not (= x108 x121)))))) (and (and (and (and (and (not (= x6 x156)) (and (not (= x156 x138)) (and (and (not (= x6 x113)) (and (not (= x113 x138)) (not (= x156 x113)))) (not (= x113 x78))))) (not (= x78 x156))) (not (= x138 x6))) (not (= x138 x78))) (not (= x6 x78)))))))
(assert (or (and (not (= (x20 x43 x43) x43)) (and (and (and (not (= (x20 x129 x43) x129)) (not (= (x20 x72 x43) x72))) (not (= (x20 x100 x43) x100))) (not (= (x20 x85 x43) x85)))) (or (and (and (not (= x85 (x20 x85 x85))) (and (and (not (= x72 (x20 x72 x85))) (not (= x129 (x20 x129 x85)))) (not (= x100 (x20 x100 x85))))) (not (= (x20 x43 x85) x43))) (or (and (and (and (not (= (x20 x100 x100) x100)) (and (not (= (x20 x129 x100) x129)) (not (= (x20 x72 x100) x72)))) (not (= (x20 x85 x100) x85))) (not (= (x20 x43 x100) x43))) (or (and (and (not (= x85 (x20 x85 x129))) (and (not (= x100 (x20 x100 x129))) (and (not (= (x20 x129 x129) x129)) (not (= x72 (x20 x72 x129)))))) (not (= x43 (x20 x43 x129)))) (and (and (and (and (not (= x72 (x20 x72 x72))) (not (= x129 (x20 x129 x72)))) (not (= x100 (x20 x100 x72)))) (not (= (x20 x85 x72) x85))) (not (= x43 (x20 x43 x72)))))))))
(assert (or (and (not (= (x20 (x20 x43 x43) x43) x43)) (and (not (= x43 (x20 (x20 x85 x43) x85))) (and (not (= x43 (x20 (x20 x100 x43) x100))) (and (not (= (x20 (x20 x129 x43) x129) x43)) (not (= (x20 (x20 x72 x43) x72) x43)))))) (or (and (and (not (= (x20 (x20 x85 x85) x85) x85)) (and (not (= (x20 (x20 x100 x85) x100) x85)) (and (not (= x85 (x20 (x20 x129 x85) x129))) (not (= x85 (x20 (x20 x72 x85) x72)))))) (not (= x85 (x20 (x20 x43 x85) x43)))) (or (and (not (= (x20 (x20 x43 x100) x43) x100)) (and (not (= (x20 (x20 x85 x100) x85) x100)) (and (and (not (= x100 (x20 (x20 x72 x100) x72))) (not (= x100 (x20 (x20 x129 x100) x129)))) (not (= x100 (x20 (x20 x100 x100) x100)))))) (or (and (and (and (and (not (= x72 (x20 (x20 x72 x72) x72))) (not (= x72 (x20 (x20 x129 x72) x129)))) (not (= x72 (x20 (x20 x100 x72) x100)))) (not (= (x20 (x20 x85 x72) x85) x72))) (not (= (x20 (x20 x43 x72) x43) x72))) (and (and (not (= x129 (x20 (x20 x85 x129) x85))) (and (not (= x129 (x20 (x20 x100 x129) x100))) (and (not (= x129 (x20 (x20 x129 x129) x129))) (not (= (x20 (x20 x72 x129) x72) x129))))) (not (= (x20 (x20 x43 x129) x43) x129))))))))
(assert (or (= x43 (x20 x43 x43)) (or (or (or (= (x20 x129 x129) x129) (= x72 (x20 x72 x72))) (= (x20 x100 x100) x100)) (= x85 (x20 x85 x85)))))
(assert (let ((x113 (x20 x100 x43)) (x34 (x20 x85 x72)) (x25 (x20 x100 x100)) (x6 (x20 x43 x85)) (x121 (x20 x72 x100)) (x62 (x20 x85 x129)) (x108 (x20 x129 x129)) (x23 (x20 x72 x43)) (x39 (x20 x85 x85)) (x19 (x20 x129 x85)) (x101 (x20 x129 x100)) (x156 (x20 x43 x100)) (x7 (x20 x129 x72)) (x109 (x20 x72 x72)) (x63 (x20 x72 x85)) (x38 (x20 x43 x129)) (x133 (x20 x85 x100)) (x122 (x20 x129 x43)) (x44 (x20 x100 x129)) (x99 (x20 x72 x129)) (x78 (x20 x43 x43)) (x112 (x20 x100 x85)) (x30 (x20 x100 x72)) (x138 (x20 x85 x43)) (x111 (x20 x43 x72))) (or (or (or (or (not (= x113 x156)) (or (not (= x38 x122)) (not (= x111 x23)))) (not (= x138 x6))) (not (= x78 x78))) (or (or (or (or (not (= x133 x112)) (or (not (= x25 x25)) (or (not (= x30 x121)) (not (= x101 x44))))) (not (= x113 x156))) (or (or (not (= x38 x122)) (or (or (not (= x101 x44)) (or (not (= x7 x99)) (not (= x108 x108)))) (not (= x62 x19)))) (or (not (= x111 x23)) (or (or (not (= x30 x121)) (or (not (= x109 x109)) (not (= x99 x7)))) (not (= x34 x63)))))) (or (or (or (not (= x133 x112)) (or (not (= x62 x19)) (not (= x63 x34)))) (not (= x39 x39))) (not (= x138 x6)))))))
(check-sat)
(exit)
